# LJ

print           "Seed: ${seed}"

units		metal
atom_style	atomic
boundary 	p p p


#read_restart	pol.restart_300_1

lattice 	fcc 5
region          box block 0 10 0 10 0 10 units lattice
create_box	1 box

region 		cryst block 3 6 3 6 3 6 units lattice
create_atoms 	1 region cryst

mass		1 50 

pair_style 	lj/cut 9
pair_coeff 	1 1 0.05 3.0 	#solid at 0.05/liquid at 0.25 at 300 K
pair_modify 	shift yes

velocity 	all create 50.0 ${seed} mom yes rot yes

thermo		100
thermo_style 	custom step temp pe
timestep	0.002
dump		2 all custom 100 first.lammpstrj id type x y z element fx fy fz
write_dump	all xyz pos.xyz modify element C
restart 	50000 restart1 restart2

fix 		1 all nvt temp 50.0 50.0 1.0
run		40000

undump 		2
thermo		1000
dump		3 all custom 1000 second.lammpstrj x y z element fx fy fz
dump_modify 	3 element Ar 

log 		log.prod

unfix 		1
fix             2 all nvt temp 50.0 300.0 1.0
run		400000



